p sp 100 150
a 1 2 1
a 1 3 1
a 1 4 1
a 2 1 1
a 2 5 1
a 2 6 1
a 7 8 1
a 7 9 1
a 7 10 1
a 8 7 1
a 8 11 1
a 8 12 1
a 13 14 1
a 13 15 1
a 13 16 1
a 14 13 1
a 14 17 1
a 14 18 1
a 19 20 1
a 19 21 1
a 19 22 1
a 20 19 1
a 20 23 1
a 20 24 1
a 15 13 1
a 15 25 1
a 15 26 1
a 27 21 1
a 27 28 1
a 27 29 1
a 21 19 1
a 21 27 1
a 21 22 1
a 30 31 1
a 30 32 1
a 30 33 1
a 31 30 1
a 31 34 1
a 31 35 1
a 36 37 1
a 36 24 1
a 36 38 1
a 37 36 1
a 37 39 1
a 37 40 1
a 16 13 1
a 16 6 1
a 16 41 1
a 6 2 1
a 6 16 1
a 6 41 1
a 32 30 1
a 32 42 1
a 32 43 1
a 42 32 1
a 42 44 1
a 42 45 1
a 17 14 1
a 17 26 1
a 17 18 1
a 26 15 1
a 26 17 1
a 26 46 1
a 47 9 1
a 47 28 1
a 47 48 1
a 9 7 1
a 9 47 1
a 9 49 1
a 50 45 1
a 50 34 1
a 50 51 1
a 45 42 1
a 45 50 1
a 45 52 1
a 53 54 1
a 53 25 1
a 53 55 1
a 54 53 1
a 54 56 1
a 54 57 1
a 58 59 1
a 58 60 1
a 58 61 1
a 59 58 1
a 59 62 1
a 59 63 1
a 25 15 1
a 25 53 1
a 25 64 1
a 60 58 1
a 60 65 1
a 60 4 1
a 65 60 1
a 65 48 1
a 65 66 1
a 67 64 1
a 67 68 1
a 67 63 1
a 64 25 1
a 64 67 1
a 64 35 1
a 69 70 1
a 69 71 1
a 69 62 1
a 70 69 1
a 70 72 1
a 70 71 1
a 73 35 1
a 73 41 1
a 73 74 1
a 35 31 1
a 35 64 1
a 35 73 1
a 3 1 1
a 3 75 1
a 3 46 1
a 76 55 1
a 76 77 1
a 76 78 1
a 55 53 1
a 55 76 1
a 55 62 1
a 40 37 1
a 40 78 1
a 40 43 1
a 78 76 1
a 78 40 1
a 78 22 1
a 49 9 1
a 49 79 1
a 49 80 1
a 75 3 1
a 75 81 1
a 75 82 1
a 77 76 1
a 77 83 1
a 77 84 1
a 28 27 1
a 28 47 1
a 28 85 1
a 85 28 1
a 85 81 1
a 85 51 1
a 11 8 1
a 11 86 1
a 11 83 1
a 80 49 1
a 80 5 1
a 80 87 1
a 5 2 1
a 5 80 1
a 5 82 1
a 44 42 1
a 44 51 1
a 44 88 1
a 66 65 1
a 66 89 1
a 66 74 1
a 89 66 1
a 89 56 1
a 89 52 1
a 34 31 1
a 34 50 1
a 34 90 1
a 56 54 1
a 56 89 1
a 56 12 1
a 86 11 1
a 86 91 1
a 86 83 1
a 91 86 1
a 91 92 1
a 91 93 1
a 52 45 1
a 52 89 1
a 52 79 1
a 79 49 1
a 79 52 1
a 79 38 1
a 51 50 1
a 51 85 1
a 51 44 1
a 48 47 1
a 48 65 1
a 48 23 1
a 68 67 1
a 68 94 1
a 68 95 1
a 94 68 1
a 94 63 1
a 94 4 1
a 10 7 1
a 10 72 1
a 10 87 1
a 41 16 1
a 41 6 1
a 41 73 1
a 57 54 1
a 57 84 1
a 57 72 1
a 84 77 1
a 84 57 1
a 84 81 1
a 96 92 1
a 96 97 1
a 96 98 1
a 92 91 1
a 92 96 1
a 92 99 1
a 24 20 1
a 24 36 1
a 24 39 1
a 99 92 1
a 99 61 1
a 99 97 1
a 61 58 1
a 61 99 1
a 61 71 1
a 97 96 1
a 97 99 1
a 97 100 1
a 63 59 1
a 63 67 1
a 63 94 1
a 83 77 1
a 83 11 1
a 83 86 1
a 74 73 1
a 74 66 1
a 74 95 1
a 18 14 1
a 18 17 1
a 18 29 1
a 46 26 1
a 46 3 1
a 46 88 1
a 39 37 1
a 39 24 1
a 39 100 1
a 38 36 1
a 38 79 1
a 38 98 1
a 82 75 1
a 82 5 1
a 82 93 1
a 93 91 1
a 93 82 1
a 93 90 1
a 81 75 1
a 81 85 1
a 81 84 1
a 12 8 1
a 12 56 1
a 12 23 1
a 23 20 1
a 23 48 1
a 23 12 1
a 4 1 1
a 4 60 1
a 4 94 1
a 90 34 1
a 90 93 1
a 90 88 1
a 100 97 1
a 100 39 1
a 100 33 1
a 43 32 1
a 43 40 1
a 43 95 1
a 95 68 1
a 95 74 1
a 95 43 1
a 62 59 1
a 62 69 1
a 62 55 1
a 88 44 1
a 88 46 1
a 88 90 1
a 98 96 1
a 98 38 1
a 98 87 1
a 22 19 1
a 22 21 1
a 22 78 1
a 33 30 1
a 33 100 1
a 33 29 1
a 29 27 1
a 29 18 1
a 29 33 1
a 87 80 1
a 87 10 1
a 87 98 1
a 72 70 1
a 72 10 1
a 72 57 1
a 71 69 1
a 71 70 1
a 71 61 1
